db/data/12851295411209207962566018660371716656.z3.out
-------------------
2500.179291344
